-99 -99 -99 -99 -99 -99 -99 -99 -99 -99 -99 -99 -99 000 000 -99 -99 -99 -99 -99 -99 -99 -99 -99 -99 -99 000 000 000 000 000
000 -99 -99 -99 000 000 000 000 -99 -99 -99 -99 -99 000 -99 -99 -99 -99 -99 -99 -99 -99 -99 -99 -99 000 000 000 000 000 000
000 -99 000 -99 000 000 000 000 000 -99 -99 -99 -99 -99 -99 -99 -99 -99 -99 -99 -99 -99 -99 -99 -99 000 000 000 000 000 000
000 -99 000 000 000 000 000 000 000 000 -99 -99 -99 -99 -99 000 000 -99 -99 -99 -99 -99 -99 -99 -99 -99 000 000 000 000 -99
000 -99 000 000 000 000 000 000 000 000 -99 -99 000 -99 -99 000 000 -99 -99 -99 -99 -99 -99 000 000 000 000 000 000 000 000
000 000 000 000 000 000 000 000 000 000 000 -99 000 000 -99 000 000 000 -99 -99 000 000 000 000 000 -99 -99 000 000 000 -99
000 000 -99 000 000 000 000 000 000 000 -99 -99 -99 000 000 000 000 000 -99 -99 000 000 000 000 000 000 000 000 000 -99 -99
000 000 000 000 000 000 000 000 000 000 -99 -99 -99 000 -99 000 000 000 -99 -99 -99 000 -99 000 000 000 -99 000 000 000 -99
000 000 000 000 000 000 000 000 000 000 -99 -99 -99 -99 -99 -99 000 000 -99 -99 000 000 -99 000 000 000 -99 -99 000 000 000
000 000 000 000 000 000 000 000 000 000 000 -99 -99 -99 -99 -99 -99 -99 000 -99 000 -99 000 -99 000 000 000 000 000 000 000
000 000 000 000 000 000 000 000 000 000 000 000 -99 -99 -99 -99 -99 -99 000 -99 000 000 000 000 -99 -99 000 000 000 000 000
000 000 000 000 000 000 000 000 000 000 000 000 -99 -99 -99 000 000 -99 000 000 000 000 000 000 -99 000 000 000 000 000 000
000 000 000 000 000 000 000 000 -99 000 000 000 -99 -99 -99 000 000 000 000 000 -99 -99 000 000 000 000 000 000 000 000 000
000 000 000 000 000 000 000 -99 -99 -99 000 000 -99 -99 -99 -99 -99 000 000 000 -99 -99 -99 000 000 000 000 000 000 000 000
000 000 000 000 000 000 000 -99 -99 -99 -99 -99 -99 -99 -99 -99 -99 000 000 -99 -99 -99 -99 000 000 000 000 000 000 000 000
000 000 000 000 000 000 000 000 000 -99 -99 -99 -99 -99 -99 -99 -99 -99 000 -99 -99 -99 000 000 000 000 -99 000 000 000 000
000 000 000 000 000 000 000 000 -99 -99 -99 -99 -99 000 000 -99 -99 -99 -99 -99 -99 -99 000 000 000 -99 000 000 000 000 000
000 000 000 000 -99 000 000 000 000 -99 001 000 -99 000 000 -99 000 000 -99 -99 -99 -99 000 000 -99 -99 000 000 000 000 000
000 000 000 000 000 000 000 000 000 000 000 000 000 000 000 000 000 000 -99 -99 -99 -99 000 -99 -99 -99 000 000 000 000 000
000 000 002 001 000 000 001 002 001 001 001 001 000 001 000 000 001 000 000 -99 -99 -99 000 -99 -99 000 000 -99 -99 000 -99
001 002 008 005 005 001 001 002 002 003 003 004 005 003 006 005 007 001 000 000 -99 -99 000 -99 -99 -99 -99 -99 -99 -99 -99
003 003 004 006 012 004 003 001 002 004 004 006 005 005 007 008 013 003 001 000 000 000 000 -99 -99 -99 -99 -99 -99 -99 -99
003 001 000 004 013 009 004 001 003 003 004 006 007 009 012 011 015 006 002 000 000 000 000 -99 -99 -99 -99 -99 -99 -99 -99
005 001 000 001 007 003 002 001 002 002 003 006 010 011 017 011 013 014 008 000 000 000 000 -99 -99 -99 -99 -99 -99 -99 -99
009 001 000 000 003 001 001 001 001 002 003 005 008 015 021 006 006 014 012 001 000 000 000 -99 -99 -99 -99 -99 -99 -99 -99
019 005 000 000 002 000 000 000 000 000 001 003 010 015 019 006 003 006 009 002 002 000 000 -99 -99 -99 -99 -99 -99 -99 000
014 010 000 000 000 000 000 000 000 000 000 000 004 013 012 004 001 003 007 003 004 000 000 -99 -99 -99 -99 -99 -99 -99 000
011 008 000 000 000 000 000 000 000 000 000 000 003 006 001 001 001 005 008 015 004 000 000 -99 -99 -99 -99 -99 -99 000 000
005 011 001 000 -99 000 000 000 000 000 -99 000 001 002 000 000 001 004 013 026 005 000 -99 -99 -99 -99 -99 -99 -99 000 000
004 004 000 000 000 000 000 000 000 000 -99 -99 000 000 000 000 000 001 007 023 003 000 004 -99 -99 -99 -99 000 -99 -99 -99
009 001 000 000 000 000 000 000 000 000 000 000 000 000 000 001 000 000 003 016 004 003 004 000 000 000 -99 000 -99 -99 -99
004 000 000 000 000 000 000 000 000 000 000 000 000 000 001 002 000 002 006 012 014 037 009 000 000 000 000 000 000 000 -99
004 001 000 003 000 000 000 000 000 000 000 000 000 001 004 004 002 002 006 017 028 056 005 002 001 000 000 000 000 000 000
006 001 001 016 003 000 000 000 003 005 004 001 000 002 007 007 007 005 013 034 041 055 009 005 002 001 001 003 000 000 000
007 006 007 006 004 001 001 001 012 011 008 005 001 003 009 013 008 015 022 025 020 037 021 007 002 002 003 005 000 000 000
027 025 014 009 017 033 017 007 015 010 015 006 002 006 007 004 004 012 035 061 035 058 033 022 014 016 010 009 001 000 000
023 044 020 021 033 039 023 008 006 006 012 011 004 010 007 006 005 010 047 072 091 068 029 016 017 019 013 013 003 000 000
013 028 014 005 020 024 009 005 006 019 013 011 014 011 010 005 004 007 040 081 094 046 024 026 035 029 019 013 002 001 001
006 016 010 008 008 010 004 007 021 020 011 008 008 012 009 007 002 006 048 085 073 035 020 021 026 039 017 021 003 006 010
026 011 008 006 010 005 006 013 021 017 013 026 009 008 005 002 004 007 012 040 039 035 022 028 024 013 010 010 005 016 025
030 008 006 003 004 001 004 013 015 015 009 015 008 003 002 003 008 007 007 028 024 016 018 024 036 030 015 006 009 022 030
008 008 005 003 001 001 007 007 008 008 008 018 010 003 003 010 011 006 007 016 014 011 019 013 028 022 016 008 026 036 044
007 006 004 001 001 002 003 002 003 005 007 017 007 003 013 018 011 004 008 010 018 009 011 018 020 021 017 008 022 054 053
003 001 002 001 001 002 004 005 006 006 005 004 003 003 013 017 010 003 006 020 012 012 009 009 008 018 021 023 039 044 048
000 000 000 000 001 006 006 006 015 008 004 002 001 003 007 004 002 004 004 010 013 020 006 005 008 006 014 021 032 026 066
000 000 000 000 000 003 005 004 006 003 003 002 002 002 003 002 001 003 005 011 011 006 007 007 012 012 018 017 015 014 029
000 000 000 000 001 002 003 003 001 003 003 001 004 003 002 002 002 002 005 008 010 005 006 009 009 010 012 011 003 005 013
000 000 000 000 001 002 002 001 001 003 002 001 002 001 002 002 002 003 006 009 007 004 004 010 006 007 010 002 001 002 008
000 000 000 000 000 001 001 002 002 003 001 002 002 001 001 002 004 004 011 009 008 004 001 003 003 006 003 001 001 002 001
000 000 000 000 000 000 000 000 002 003 002 002 002 001 001 011 022 018 013 007 008 003 001 001 000 001 000 000 000 001 001
000 000 000 000 000 000 000 001 001 001 002 004 001 001 003 018 031 039 041 020 008 002 000 000 000 000 000 -99 000 000 000
000 000 000 000 000 000 001 000 000 000 003 002 002 001 004 017 051 055 022 013 010 007 000 000 000 000 -99 -99 -99 000 000
000 000 000 001 001 001 000 000 000 001 002 005 002 002 003 012 066 073 017 014 008 003 000 -99 -99 -99 -99 -99 -99 -99 -99
000 000 000 001 001 001 000 000 001 000 003 004 012 002 001 013 062 048 017 006 003 000 000 -99 -99 -99 -99 -99 -99 -99 -99
000 000 000 000 000 000 000 000 000 000 002 005 006 001 002 008 047 034 019 001 001 000 000 -99 -99 -99 -99 -99 -99 -99 -99
